3109.55 0
0 137 80 92 89 79 78 83 77 76 85 87 82 81 91 88 75 0 
0 90 86 93 95 96 94 0 
0 39 44 43 38 40 49 42 10 3 9 17 5 16 2 6 110 102 107 0 
0 132 127 123 29 37 34 36 27 0 
0 61 136 131 126 128 116 122 121 118 134 0 
0 105 103 98 97 111 0 
0 64 133 69 71 65 70 68 74 66 51 57 0 
0 63 56 54 62 60 55 0 
0 135 115 125 120 119 124 113 114 117 72 67 73 130 129 0 
0 53 59 52 0 
0 146 143 14 1 150 13 12 11 4 8 7 15 104 108 99 112 0 
0 145 149 139 144 138 148 141 140 147 142 84 0 
0 18 21 22 35 19 33 0 
0 106 109 100 101 47 50 48 45 41 46 58 0 
0 20 28 26 31 32 30 23 24 25 0 
